NAME SHARE2B
ROWS
 N  OBJ
 L  000004  
 L  000005  
 L  000006  
 L  000007  
 L  000008  
 L  000009  
 L  000010  
 L  000011  
 L  000012  
 E  000013  
 L  000014  
 L  000015  
 L  000016  
 L  000017  
 L  000018  
 L  000019  
 L  000020  
 L  000021  
 L  000022  
 E  000023  
 L  000024  
 L  000025  
 L  000026  
 L  000027  
 L  000028  
 L  000029  
 L  000030  
 L  000031  
 L  000032  
 E  000033  
 L  000034  
 L  000035  
 L  000036  
 L  000037  
 L  000038  
 L  000039  
 L  000040  
 L  000041  
 L  000042  
 E  000043  
 L  000044  
 L  000045  
 L  000046  
 L  000047  
 L  000048  
 L  000049  
 L  000050  
 L  000051  
 L  000052  
 E  000053  
 L  000054  
 L  000055  
 L  000056  
 L  000057  
 L  000058  
 L  000059  
 L  000060  
 L  000061  
 L  000062  
 E  000063  
 L  000064  
 L  000065  
 L  000066  
 L  000067  
 L  000068  
 L  000069  
 L  000070  
 L  000071  
 L  000072  
 L  000073  
 L  000074  
 L  000075  
 L  000076  
 L  000077  
 L  000078  
 L  000079  
 L  000080  
 L  000081  
 E  000082  
 E  000083  
 E  000084  
 E  000085  
 E  000086  
 E  000087  
 L  000088  
 L  000089  
 L  000090  
 L  000091  
 L  000092  
 L  000093  
 L  000094  
 L  000095  
 L  000096  
 L  000097  
 L  000098  
 E  000099  
COLUMNS
    010101    000004    65
    010101    000005    1
    010101    000006    -1
    010101    000007    -1
    010101    000008    -97.4
    010101    000009    -99.9
    010101    000010    -83.7
    010101    000011    -85
    010101    000013    1
    010102    000004    5.5
    010102    000005    0.68
    010102    000006    -0.96
    010102    000007    -1
    010102    000008    -84
    010102    000009    -88.1
    010102    000010    -79.4
    010102    000011    -83.2
    010102    000013    1
    010102    000064    1
    010103    000004    0.8
    010103    000007    -0.78
    010103    000008    -87.9
    010103    000009    -82.9
    010103    000010    -74.6
    010103    000011    -80.6
    010103    000013    1
    010103    000065    1
    010104    000004    4.5
    010104    000005    0.27
    010104    000006    -0.97
    010104    000007    -1
    010104    000008    -97.9
    010104    000009    -100.3
    010104    000010    -95
    010104    000011    -98
    010104    000013    1
    010104    000088    1
    010105    000004    1.5
    010105    000005    0.12
    010105    000006    -0.36
    010105    000007    -0.95
    010105    000008    -60.6
    010105    000009    -76.3
    010105    000010    -68.6
    010105    000011    -76.8
    010105    000013    1
    010105    000066    1
    010106    OBJ       0.03
    010106    000004    6
    010106    000005    0.19
    010106    000006    -0.35
    010106    000007    -0.89
    010106    000008    -94.8
    010106    000009    -96.6
    010106    000010    -83.8
    010106    000011    -86.8
    010106    000013    1
    010106    000066    1.1
    010107    OBJ       0.06
    010107    000004    3.3
    010107    000005    0.07
    010107    000006    -0.29
    010107    000007    -0.97
    010107    000008    -97.9
    010107    000009    -100.3
    010107    000010    -95
    010107    000011    -98
    010107    000013    1
    010107    000066    1.2
    010108    000004    5.8
    010108    000005    0.5
    010108    000006    -0.62
    010108    000007    -0.98
    010108    000008    -96.5
    010108    000009    -98.1
    010108    000010    -80.8
    010108    000011    -81.5
    010108    000013    1
    010108    000067    1
    010120    OBJ       0.09
    010120    000008    -2.1
    010120    000009    -0.7
    010120    000010    -2.3
    010120    000011    -1
    010120    000012    1
    010131    OBJ       -3.8
    010131    000004    -11
    010131    000005    -0.5
    010131    000006    0.5
    010131    000007    0.9
    010131    000008    100
    010131    000009    100
    010131    000010    90
    010131    000011    90
    010131    000012    -3
    010131    000013    -1
    010131    000082    1
    010132    OBJ       -3.7
    010132    000082    -1
    010132    000083    1
    010133    OBJ       -3.5
    010133    000082    -1
    010133    000084    1
    010201    000014    65
    010201    000015    1
    010201    000016    -1
    010201    000017    -1
    010201    000018    -97.4
    010201    000019    -99.9
    010201    000020    -83.7
    010201    000021    -85
    010201    000023    1
    010202    000014    5.5
    010202    000015    0.57
    010202    000016    -1
    010202    000017    -1
    010202    000018    -84
    010202    000019    -88.1
    010202    000020    -79.4
    010202    000021    -83.2
    010202    000023    1
    010202    000064    1
    010203    000014    0.8
    010203    000016    -0.01
    010203    000017    -0.98
    010203    000018    -87.9
    010203    000019    -82.9
    010203    000020    -74.6
    010203    000021    -80.6
    010203    000023    1
    010203    000065    1
    010204    000014    1.5
    010204    000015    0.12
    010204    000016    -0.36
    010204    000017    -0.95
    010204    000018    -60.6
    010204    000019    -76.3
    010204    000020    -68.6
    010204    000021    -76.8
    010204    000023    1
    010204    000066    1
    010205    OBJ       0.1
    010205    000014    2.7
    010205    000015    0.13
    010205    000016    -0.28
    010205    000017    -0.79
    010205    000018    -77.9
    010205    000019    -81.4
    010205    000020    -70.6
    010205    000021    -74
    010205    000023    1
    010205    000069    1
    010206    000014    5.8
    010206    000015    0.46
    010206    000016    -0.67
    010206    000017    -1
    010206    000018    -96.5
    010206    000019    -98.1
    010206    000020    -80.8
    010206    000021    -81.5
    010206    000023    1
    010206    000067    1
    010220    OBJ       0.09
    010220    000018    -3.5
    010220    000019    -1.9
    010220    000020    -3.4
    010220    000021    -1.8
    010220    000022    1
    010231    OBJ       -3
    010231    000014    -11
    010231    000015    -0.5
    010231    000016    0.5
    010231    000017    0.9
    010231    000018    89
    010231    000019    89
    010231    000020    82
    010231    000021    82
    010231    000022    -3
    010231    000023    -1
    010231    000085    1
    010231    000089    -0.25
    010301    000024    70
    010301    000025    1
    010301    000026    -1
    010301    000027    -1
    010301    000028    -97.8
    010301    000029    -102.3
    010301    000030    -94.8
    010301    000031    -99.8
    010301    000033    1
    010302    000024    9.5
    010302    000025    0.7
    010302    000026    -0.83
    010302    000027    -1
    010302    000028    -89.1
    010302    000029    -92
    010302    000030    -77.4
    010302    000031    -80.1
    010302    000033    1
    010302    000068    1
    010303    000024    2.7
    010303    000025    0.13
    010303    000026    -0.28
    010303    000027    -0.79
    010303    000028    -77.9
    010303    000029    -81.4
    010303    000030    -70.6
    010303    000031    -74
    010303    000033    1
    010303    000069    1
    010304    000024    10.8
    010304    000025    0.97
    010304    000026    -1
    010304    000027    -1
    010304    000028    -84.6
    010304    000029    -89.7
    010304    000030    -83.6
    010304    000031    -89.4
    010304    000033    1
    010304    000070    1
    010305    000024    1.5
    010305    000025    0.12
    010305    000026    -0.36
    010305    000027    -0.95
    010305    000028    -60.6
    010305    000029    -76.3
    010305    000030    -68.6
    010305    000031    -76.8
    010305    000033    1
    010305    000071    1
    010306    OBJ       0.06
    010306    000024    6.2
    010306    000025    0.19
    010306    000026    -0.35
    010306    000027    -0.89
    010306    000028    -95.9
    010306    000029    -97.6
    010306    000030    -85.4
    010306    000031    -87.8
    010306    000033    1
    010306    000071    1.2
    010307    OBJ       0.03
    010307    000024    6
    010307    000025    0.19
    010307    000026    -0.35
    010307    000027    -0.89
    010307    000028    -94.8
    010307    000029    -96.6
    010307    000030    -83.8
    010307    000031    -86.8
    010307    000033    1
    010307    000071    1.1
    010308    OBJ       0.1
    010308    000024    4.5
    010308    000025    0.27
    010308    000026    -0.97
    010308    000027    -1
    010308    000028    -97.9
    010308    000029    -100.3
    010308    000030    -95
    010308    000031    -98
    010308    000033    1
    010308    000088    1
    010309    OBJ       0.1
    010309    000024    5.5
    010309    000025    0.68
    010309    000026    -0.96
    010309    000027    -1
    010309    000028    -84
    010309    000029    -88.1
    010309    000030    -79.4
    010309    000031    -83.2
    010309    000033    1
    010309    000064    1
    010310    OBJ       0.1
    010310    000024    6.5
    010310    000025    0.48
    010310    000026    -0.56
    010310    000027    -0.97
    010310    000028    -96.5
    010310    000029    -97.1
    010310    000030    -82.2
    010310    000031    -83.3
    010310    000033    1
    010310    000067    1
    010320    OBJ       0.09
    010320    000028    -1.9
    010320    000029    -0.9
    010320    000030    -2.4
    010320    000031    -0.9
    010320    000032    1
    010331    OBJ       -3.7
    010331    000024    -11
    010331    000025    -0.5
    010331    000026    0.5
    010331    000027    0.9
    010331    000028    100
    010331    000029    100
    010331    000030    90
    010331    000031    90
    010331    000033    -1
    010331    000032    -3
    010331    000083    1
    010333    OBJ       -3.5
    010333    000083    -1
    010333    000084    1
    010401    000034    70
    010401    000035    1
    010401    000036    -1
    010401    000037    -1
    010401    000038    -97.8
    010401    000039    -102.3
    010401    000040    -94.8
    010401    000041    -99.8
    010401    000043    1
    010402    000034    9.5
    010402    000035    0.68
    010402    000036    -0.9
    010402    000037    -1
    010402    000038    -89.1
    010402    000039    -92
    010402    000040    -77.4
    010402    000041    -80.1
    010402    000043    1
    010402    000068    1
    010403    000034    2.7
    010403    000035    0.09
    010403    000036    -0.37
    010403    000037    -0.92
    010403    000038    -77.9
    010403    000039    -81.4
    010403    000040    -70.6
    010403    000041    -74
    010403    000043    1
    010403    000069    1
    010404    000034    10.8
    010404    000035    0.93
    010404    000036    -1
    010404    000037    -1
    010404    000038    -84.6
    010404    000039    -89.7
    010404    000040    -83.6
    010404    000041    -89.4
    010404    000043    1
    010404    000070    1
    010405    OBJ       0.03
    010405    000034    6.2
    010405    000035    0.15
    010405    000036    -0.45
    010405    000037    -0.98
    010405    000038    -95.9
    010405    000039    -97.6
    010405    000040    -85.4
    010405    000041    -87.8
    010405    000043    1
    010405    000071    1.1
    010406    OBJ       0.1
    010406    000034    6.5
    010406    000035    0.45
    010406    000036    -0.63
    010406    000037    -1
    010406    000038    -96.5
    010406    000039    -97.1
    010406    000040    -82.2
    010406    000041    -83.3
    010406    000043    1
    010406    000067    1
    010407    000034    1.5
    010407    000035    0.12
    010407    000036    -0.36
    010407    000037    -0.95
    010407    000038    -60.6
    010407    000039    -76.3
    010407    000040    -68.6
    010407    000041    -76.8
    010407    000043    1
    010407    000071    1
    010408    OBJ       0.1
    010408    000034    5.5
    010408    000035    0.68
    010408    000036    -0.96
    010408    000037    -1
    010408    000038    -84
    010408    000039    -88.1
    010408    000040    -79.4
    010408    000041    -83.2
    010408    000043    1
    010408    000064    1
    010420    OBJ       0.09
    010420    000038    -3.9
    010420    000039    -1.4
    010420    000040    -3.5
    010420    000041    -1.3
    010420    000042    1
    010431    OBJ       -2.9
    010431    000034    -11
    010431    000035    -0.5
    010431    000036    0.5
    010431    000037    0.9
    010431    000038    89
    010431    000039    89
    010431    000040    82
    010431    000041    82
    010431    000042    -3
    010431    000043    -1
    010431    000086    1
    010432    OBJ       -2.8
    010432    000085    1
    010432    000086    -1
    010432    000089    0.75
    010501    000044    56
    010501    000045    1
    010501    000046    -1
    010501    000047    -1
    010501    000048    -99.4
    010501    000049    -103
    010501    000050    -96.7
    010501    000051    -101.2
    010501    000053    1
    010502    000044    1.8
    010502    000047    -1
    010502    000048    -87.9
    010502    000049    -91.6
    010502    000050    -88.1
    010502    000051    -92
    010502    000053    1
    010502    000072    1
    010503    000044    1.4
    010503    000047    -0.54
    010503    000048    -86.2
    010503    000049    -90
    010503    000050    -88
    010503    000051    -91.3
    010503    000053    1
    010503    000073    1
    010504    000044    10.6
    010504    000045    0.68
    010504    000046    -0.87
    010504    000047    -1
    010504    000048    -99.9
    010504    000049    -100.4
    010504    000050    -80.8
    010504    000051    -81.7
    010504    000053    1
    010504    000074    1
    010505    000044    2.5
    010505    000047    -0.65
    010505    000048    -89.6
    010505    000049    -91.7
    010505    000050    -79.3
    010505    000051    -82.1
    010505    000053    1
    010505    000075    1
    010506    000044    11.5
    010506    000045    0.77
    010506    000046    -0.93
    010506    000047    -1
    010506    000048    -79.5
    010506    000049    -85.1
    010506    000050    -80.2
    010506    000051    -86.2
    010506    000053    1
    010506    000076    1
    010507    000044    1.5
    010507    000045    0.12
    010507    000046    -0.36
    010507    000047    -0.95
    010507    000048    -60.6
    010507    000049    -76.3
    010507    000050    -68.6
    010507    000051    -76.8
    010507    000053    1
    010507    000077    1
    010508    OBJ       0.03
    010508    000044    4.2
    010508    000045    0.08
    010508    000046    -0.3
    010508    000047    -0.91
    010508    000048    -99.5
    010508    000049    -99.9
    010508    000050    -87.6
    010508    000051    -89
    010508    000053    1
    010508    000077    1.1
    010509    OBJ       0.06
    010509    000044    4.3
    010509    000045    0.07
    010509    000046    -0.27
    010509    000047    -0.9
    010509    000048    -101.4
    010509    000049    -101.5
    010509    000050    -89
    010509    000051    -90.2
    010509    000053    1
    010509    000077    1.2
    010520    OBJ       0.09
    010520    000048    -1.6
    010520    000049    -0.8
    010520    000050    -2
    010520    000051    -0.8
    010520    000052    1
    010531    OBJ       -3.5
    010531    000044    -10
    010531    000045    -0.5
    010531    000046    0.5
    010531    000047    0.9
    010531    000048    101
    010531    000049    101
    010531    000050    91
    010531    000051    91
    010531    000052    -3
    010531    000053    -1
    010531    000084    1
    010601    000054    56
    010601    000055    1
    010601    000056    -1
    010601    000057    -1
    010601    000058    -97.7
    010601    000059    -100.6
    010601    000060    -94.5
    010601    000061    -98.5
    010601    000063    1
    010602    000054    10.6
    010602    000055    0.39
    010602    000056    -1
    010602    000057    -1
    010602    000058    -98.2
    010602    000059    -98
    010602    000060    -78.6
    010602    000061    -79
    010602    000063    1
    010602    000074    1
    010603    000054    2.5
    010603    000057    -0.87
    010603    000058    -87.9
    010603    000059    -89.3
    010603    000060    -77.1
    010603    000061    -79.4
    010603    000063    1
    010603    000075    1
    010604    000054    3.6
    010604    000055    0.27
    010604    000056    -1
    010604    000057    -1
    010604    000058    -78.8
    010604    000059    -82.7
    010604    000060    -75.1
    010604    000061    -80.5
    010604    000063    1
    010604    000078    1
    010605    000054    11.5
    010605    000055    0.73
    010605    000056    -0.98
    010605    000057    -1
    010605    000058    -78.2
    010605    000059    -82.7
    010605    000060    -78
    010605    000061    -83.5
    010605    000063    1
    010605    000076    1
    010606    000054    2
    010606    000056    -0.38
    010606    000057    -1
    010606    000058    -66.9
    010606    000059    -71.4
    010606    000060    -67.6
    010606    000061    -73.8
    010606    000063    1
    010606    000079    1
    010607    000054    14.6
    010607    000055    1
    010607    000056    -1
    010607    000057    -1
    010607    000058    -74.7
    010607    000059    -79.8
    010607    000060    -77.3
    010607    000061    -83
    010607    000063    1
    010607    000080    1
    010608    000054    6.1
    010608    000055    0.33
    010608    000056    -0.65
    010608    000057    -1
    010608    000058    -70.7
    010608    000059    -75.9
    010608    000060    -69.6
    010608    000061    -75.3
    010608    000063    1
    010608    000081    1
    010609    OBJ       0.03
    010609    000054    4.2
    010609    000055    0.04
    010609    000056    -0.36
    010609    000057    -0.98
    010609    000058    -97.8
    010609    000059    -97.5
    010609    000060    -85.4
    010609    000061    -86.3
    010609    000063    1
    010609    000077    1.1
    010620    OBJ       0.09
    010620    000058    -3.3
    010620    000059    -1.6
    010620    000060    -4.2
    010620    000061    -1.7
    010620    000062    1
    010631    OBJ       -2.7
    010631    000054    -11
    010631    000055    -0.5
    010631    000056    0.5
    010631    000057    0.9
    010631    000058    89
    010631    000059    89
    010631    000060    82
    010631    000061    82
    010631    000062    -3
    010631    000063    -1
    010631    000087    1
    010632    OBJ       -2.7
    010632    000085    1
    010632    000087    -1
    010632    000089    0.75
    010633    OBJ       -2.7
    010633    000086    1
    010633    000087    -1
    010701    000090    56
    010701    000091    1
    010701    000092    -1
    010701    000093    -1
    010701    000094    -97.7
    010701    000095    -100.6
    010701    000096    -94.5
    010701    000097    -98.5
    010701    000099    1
    010702    000074    1
    010702    000090    10.6
    010702    000091    0.39
    010702    000092    -1
    010702    000093    -1
    010702    000094    -98.2
    010702    000095    -98
    010702    000096    -78.6
    010702    000097    -79
    010702    000099    1
    010703    000075    1
    010703    000090    2.5
    010703    000093    -0.87
    010703    000094    -87.9
    010703    000095    -89.3
    010703    000096    -77.1
    010703    000097    -79.4
    010703    000099    1
    010704    000078    1
    010704    000090    3.6
    010704    000091    0.27
    010704    000092    -1
    010704    000093    -1
    010704    000094    -78.8
    010704    000095    -82.7
    010704    000096    -75.1
    010704    000097    -80.5
    010704    000099    1
    010705    000076    1
    010705    000090    11.5
    010705    000091    0.73
    010705    000092    -0.98
    010705    000093    -1
    010705    000094    -78.2
    010705    000095    -82.7
    010705    000096    -78
    010705    000097    -83.5
    010705    000099    1
    010706    000079    1
    010706    000090    2
    010706    000092    -0.38
    010706    000093    -1
    010706    000094    -66.9
    010706    000095    -71.4
    010706    000096    -67.6
    010706    000097    -73.8
    010706    000099    1
    010707    000080    1
    010707    000090    14.6
    010707    000091    1
    010707    000092    -1
    010707    000093    -1
    010707    000094    -74.7
    010707    000095    -79.8
    010707    000096    -77.3
    010707    000097    -83
    010707    000099    1
    010708    OBJ       0.03
    010708    000077    1.1
    010708    000090    4.2
    010708    000091    0.04
    010708    000092    -0.36
    010708    000093    -0.98
    010708    000094    -97.8
    010708    000095    -97.5
    010708    000096    -85.4
    010708    000097    -86.3
    010708    000099    1
    010709    OBJ       0.07
    010709    000077    1.2
    010709    000090    4.3
    010709    000091    0.07
    010709    000092    -0.27
    010709    000093    -0.9
    010709    000094    -101.4
    010709    000095    -101.5
    010709    000096    -89
    010709    000097    -90.2
    010709    000099    1
    010720    OBJ       0.09
    010720    000094    -3.3
    010720    000095    -1.6
    010720    000096    -4.2
    010720    000097    -1.7
    010720    000098    1
    010731    OBJ       -2.7
    010731    000090    -10
    010731    000091    -0.5
    010731    000092    0.5
    010731    000093    0.9
    010731    000094    90
    010731    000095    90
    010731    000096    83
    010731    000097    83
    010731    000098    -3
    010731    000099    -1
RHS
    RHS1      000064    7
    RHS1      000065    7
    RHS1      000066    7
    RHS1      000067    21
    RHS1      000068    3
    RHS1      000069    3
    RHS1      000070    3
    RHS1      000071    7
    RHS1      000072    1.5
    RHS1      000073    1.5
    RHS1      000074    10
    RHS1      000075    10
    RHS1      000076    8.5
    RHS1      000077    13
    RHS1      000078    1.5
    RHS1      000079    1.5
    RHS1      000080    1
    RHS1      000081    1
    RHS1      000082    15
    RHS1      000083    15
    RHS1      000084    20
    RHS1      000085    20
    RHS1      000086    15
    RHS1      000088    1
BOUNDS
ENDATA
